
Gurobi 9.1.2 (linux64, gurobi_cl) logging started Fri Jul 30 13:51:55 2021

Using license file /opt/gurobi/gurobi.lic
Set parameter TimeLimit to value 600
Set parameter MIPFocus to value 1
Set parameter LogFile to value 912-MIPFocus1-Presolve1-glass4-2.log
Set parameter Presolve to value 1
Set parameter Seed to value 2

Gurobi Optimizer version 9.1.2 build v9.1.2rc0 (linux64)
Copyright (c) 2021, Gurobi Optimization, LLC

Read MPS format model from file /nfs/models/mip/glass4.mps.bz2
Reading time = 0.18 seconds
glass4: 396 rows, 322 columns, 1815 nonzeros
Thread count: 4 physical cores, 8 logical processors, using up to 8 threads
Optimize a model with 396 rows, 322 columns and 1815 nonzeros
Model fingerprint: 0x0a9d9037
Variable types: 20 continuous, 302 integer (0 binary)
Coefficient statistics:
  Matrix range     [1e+00, 8e+06]
  Objective range  [1e+00, 1e+06]
  Bounds range     [1e+00, 8e+02]
  RHS range        [1e+00, 8e+06]
Presolve removed 4 rows and 6 columns
Presolve time: 0.00s
Presolved: 392 rows, 316 columns, 1811 nonzeros
Variable types: 19 continuous, 297 integer (297 binary)
Found heuristic solution: objective 3.133356e+09

Root relaxation: objective 8.000024e+08, 72 iterations, 0.00 seconds

    Nodes    |    Current Node    |     Objective Bounds      |     Work
 Expl Unexpl |  Obj  Depth IntInf | Incumbent    BestBd   Gap | It/Node Time

     0     0 8.0000e+08    0   72 3.1334e+09 8.0000e+08  74.5%     -    0s
H    0     0                    2.350019e+09 8.0000e+08  66.0%     -    0s
H    0     0                    2.100019e+09 8.0000e+08  61.9%     -    0s
H    0     0                    2.100018e+09 8.0000e+08  61.9%     -    0s
     0     0 8.0000e+08    0   72 2.1000e+09 8.0000e+08  61.9%     -    0s
     0     0 8.0000e+08    0   72 2.1000e+09 8.0000e+08  61.9%     -    0s
     0     0 8.0000e+08    0   77 2.1000e+09 8.0000e+08  61.9%     -    0s
     0     0 8.0000e+08    0   78 2.1000e+09 8.0000e+08  61.9%     -    0s
     0     0 8.0000e+08    0   95 2.1000e+09 8.0000e+08  61.9%     -    0s
     0     0 8.0000e+08    0   83 2.1000e+09 8.0000e+08  61.9%     -    0s
     0     0 8.0000e+08    0   94 2.1000e+09 8.0000e+08  61.9%     -    0s
     0     0 8.0000e+08    0   66 2.1000e+09 8.0000e+08  61.9%     -    0s
     0     0 8.0000e+08    0   74 2.1000e+09 8.0000e+08  61.9%     -    0s
     0     0 8.0000e+08    0   71 2.1000e+09 8.0000e+08  61.9%     -    0s
H    0     2                    2.100016e+09 8.0000e+08  61.9%     -    0s
     0     2 8.0000e+08    0   64 2.1000e+09 8.0000e+08  61.9%     -    0s
H    1     4                    2.033349e+09 8.0000e+08  60.7%  46.0    0s
H   17    20                    2.000016e+09 8.0000e+08  60.0%  32.6    0s
H   37    40                    1.950016e+09 8.0000e+08  59.0%  24.3    0s
H  184   199                    1.900017e+09 8.0000e+08  57.9%   9.4    0s
H  227   279                    1.850016e+09 8.0000e+08  56.8%   8.9    0s
H  304   284                    1.833349e+09 8.0000e+08  56.4%   7.6    0s
H  324   308                    1.825016e+09 8.0000e+08  56.2%   7.5    0s
H  508   449                    1.783349e+09 8.0000e+08  55.1%   7.2    1s
H  754   645                    1.700015e+09 8.0000e+08  52.9%   7.1    1s
H  803   630                    1.670015e+09 8.0000e+08  52.1%   7.0    1s
H  816   624                    1.650015e+09 8.0001e+08  51.5%   7.2    1s
H  843   715                    1.650015e+09 8.0001e+08  51.5%   7.4    1s
H  895   715                    1.640015e+09 8.0001e+08  51.2%   7.2    1s
H  921   713                    1.600015e+09 8.0001e+08  50.0%   7.4    1s
H 1000   756                    1.550015e+09 8.0001e+08  48.4%   7.3    1s
H 1004  1035                    1.533348e+09 8.0001e+08  47.8%   7.3    1s
H 1996  1259                    1.500015e+09 8.0001e+08  46.7%  14.9    4s
  2004  1265 1.5000e+09   54   29 1.5000e+09 8.0001e+08  46.7%  14.9    5s
H 2075  1231                    1.500015e+09 8.0001e+08  46.7%  15.3    5s
  2663  1482 8.0001e+08   22  104 1.5000e+09 8.0001e+08  46.7%  18.9   10s
  3676  1848 infeasible   39      1.5000e+09 8.0001e+08  46.7%  23.1   15s
  4805  2346 infeasible   46      1.5000e+09 8.0001e+08  46.7%  24.4   20s
  5616  2686 9.0176e+08   32   63 1.5000e+09 8.0001e+08  46.7%  25.7   25s
  8250  4381 9.0001e+08   34   59 1.5000e+09 9.0000e+08  40.0%  27.7   30s
 11365  6271 9.0001e+08   29   89 1.5000e+09 9.0001e+08  40.0%  28.5   36s
 14825  9140 9.0425e+08   30   69 1.5000e+09 9.0001e+08  40.0%  29.2   41s
 18543 10717 9.8183e+08   45   51 1.5000e+09 9.0001e+08  40.0%  28.8   45s
 21968 12811 9.0001e+08   36   55 1.5000e+09 9.0001e+08  40.0%  28.7   50s
 25680 14893 1.2000e+09   33   71 1.5000e+09 9.0001e+08  40.0%  28.7   55s
 29502 17586 1.1667e+09   30   80 1.5000e+09 9.0001e+08  40.0%  28.8   60s
 34412 19770 1.2500e+09   50   37 1.5000e+09 9.0001e+08  40.0%  28.5   65s
 37740 22000 infeasible   75      1.5000e+09 9.0001e+08  40.0%  28.4   70s
 41681 23581 1.4000e+09   32   53 1.5000e+09 9.0001e+08  40.0%  28.3   75s
 46312 26018 1.3000e+09   44   36 1.5000e+09 9.0001e+08  40.0%  28.0   80s
 50220 28427 infeasible   53      1.5000e+09 9.0001e+08  40.0%  27.9   86s
 54024 30236 1.4000e+09   38   59 1.5000e+09 9.0001e+08  40.0%  27.9   90s
 57988 32230 infeasible   50      1.5000e+09 9.0001e+08  40.0%  27.7   95s
 62256 34346 infeasible   53      1.5000e+09 9.0001e+08  40.0%  27.5  101s
 66356 36514 9.0001e+08   41   58 1.5000e+09 9.0001e+08  40.0%  27.4  105s
 69592 38239 1.0000e+09   51   48 1.5000e+09 9.0001e+08  40.0%  27.4  110s
 73672 40431 9.0001e+08   38   58 1.5000e+09 9.0001e+08  40.0%  27.2  115s
 77648 42224 1.3000e+09   35   44 1.5000e+09 9.0001e+08  40.0%  27.0  120s
 83471 45088 1.3000e+09   58   51 1.5000e+09 9.0001e+08  40.0%  26.8  126s
 86947 46807 9.5404e+08   47   51 1.5000e+09 9.0001e+08  40.0%  26.7  130s
*91205 48480              58    1.500013e+09 9.0001e+08  40.0%  26.6  134s
*91206 48454              58    1.500013e+09 9.0001e+08  40.0%  26.6  134s
*91209 48432              57    1.500013e+09 9.0001e+08  40.0%  26.6  134s
*91210 48417              57    1.500013e+09 9.0001e+08  40.0%  26.6  134s
H92276 48537                    1.500013e+09 9.0001e+08  40.0%  26.6  135s
H92514 48453                    1.500012e+09 9.0001e+08  40.0%  26.6  135s
H92814 33930                    1.200013e+09 9.0001e+08  25.0%  26.5  135s
 98178 31610 infeasible   44      1.2000e+09 9.0001e+08  25.0%  28.1  140s
 104975 27688 infeasible   41      1.2000e+09 9.0001e+08  25.0%  29.3  145s
 115954 19884 infeasible   42      1.2000e+09 1.0000e+09  16.7%  30.5  150s
 128203  9648 infeasible   29      1.2000e+09 1.1000e+09  8.33%  30.3  155s

Cutting planes:
  Gomory: 46
  Cover: 13
  Implied bound: 43
  Clique: 4
  MIR: 75
  Flow cover: 382
  GUB cover: 1
  Inf proof: 1
  RLT: 176
  Relax-and-lift: 176

Explored 135127 nodes (3954850 simplex iterations) in 155.75 seconds
Thread count was 8 (of 8 available processors)

Solution count 10: 1.20001e+09 1.50001e+09 1.50001e+09 ... 1.53335e+09

Optimal solution found (tolerance 1.00e-04)
Best objective 1.200012600000e+09, best bound 1.200003400000e+09, gap 0.0008%
